Route #1: 6 29 22 25 1 7
Route #2: 5 3 23 17 4 28 8
Route #3: 26 19 16
Route #4: 11
Route #5: 13 18 12 27
Route #6: 21 20
Route #7: 31
Route #8: 2 9 30
Route #9: 24 14
Route #10: 15 10

Cost: 2159.718712334672
